peakDumbCharging = 18500; 
Machine = anon_enum(16); 
machineSpeed = [3700,3700,3700,3700,3700,3700,3700,3700,3700,3700,3700,3700,3700,3700,3700,3700]; 
machineLoad = [3700,3700,3700,3700,3700,3700,3700,3700,3700,3700,3700,3700,3700,3700,3700,3700]; 
Car = anon_enum(29); 
demandCar = [2040,7480,200,9720,29800,3600,13160,4200,4000,1280,12840,8120,9040,2960,3920,11000,30040,5720,4480,6760,5480,7760,9720,15680,9680,15240,9480,25240,8560]; 
arrivalCar = [68,67,65,64,64,64,63,62,61,60,59,59,58,57,56,49,49,48,44,43,41,41,41,39,37,35,32,32,24]; 
departureCar = [70,70,67,70,80,70,73,66,64,62,66,64,61,59,59,54,63,51,46,48,45,45,45,51,44,50,37,66,27]; 
